6310
7538
9475
8326
5971
4334
7714
10094
6459
7312
938
9162
4588
7143
4216
1600
9998
2833
9889
7922
1753
1594
6086
993
1341
5373
4651
9239
5552
493
1683
4238
3005
8903
10065
1249
7841
4462
8874
5399
5700
3757
2097
2356
4405
4494
2617
5671
8728
10086
4703
